c read Graph
c width = 196
c time = 102 ms
c width = 17
c time = 216 ms
c width = 15
c time = 348 ms
c width = 14
c time = 566 ms
c width = 13
c time = 703 ms
c width = 12
c time = 3204 ms
c width = 12
c time = 5000 ms
s td 188 13 209
b 1 1 2 20
b 2 2 3 20 21
b 3 17 18 37 38
b 4 3 20 21 39
b 5 17 37 38 57
b 6 153 172 173 192
b 7 171 189 190 208
b 8 153 173 192 193
b 9 171 189 207 208
b 10 3 4 5 23
b 11 3 5 22 23 40 58
b 12 5 22 23 40 42 58 60
b 13 5 23 40 42 58 60 78
b 14 5 23 42 58 60 78 96
b 15 5 23 25 42 43 60 78 96
b 16 5 25 42 43 60 62 78 80 96
b 17 5 25 43 60 62 78 80 96 98
b 18 5 25 43 62 78 80 96 98 116
b 19 78 96 97 98 116
b 20 5 25 43 62 80 96 98 116 118 138 158 176 196
b 21 5 25 43 62 80 98 116 118 138 158 176 196
b 22 5 25 43 62 80 98 100 118 138 158 176 196
b 23 80 98 99 100 118
b 24 5 25 43 62 80 82 100 118 138 158 176 196
b 25 5 25 43 62 63 82 100 118 138 158 176 196
b 26 5 25 43 45 63 82 100 118 138 158 176 196
b 27 5 25 45 63 82 100 118 120 138 158 176 196
b 28 5 25 45 63 82 100 102 120 138 158 176 196
b 29 82 100 101 102 120
b 30 5 25 45 63 82 83 102 120 138 158 176 196
b 31 5 25 45 63 83 102 120 138 140 158 176 196
b 32 5 25 45 63 83 102 120 122 140 158 176 196
b 33 102 120 121 122 140
b 34 5 25 45 63 83 102 122 140 158 176 178 196
b 35 5 25 45 63 83 102 122 140 158 160 178 196
b 36 5 25 45 63 65 83 102 122 140 160 178 196
b 37 5 25 45 65 83 102 122 140 142 160 178 196
b 38 5 25 45 65 83 102 103 122 142 160 178 196
b 39 5 25 45 65 83 85 103 122 142 160 178 196
b 40 5 25 45 65 85 103 122 123 142 160 178 196
b 41 5 9 25 27 45 65 85 103 123 142 160 178 196
b 42 9 27 45 65 85 103 123 142 160 178 180 196 200
b 43 9 27 45 65 85 103 105 123 142 160 180 200
b 44 9 27 45 47 65 85 105 123 142 160 180 200
b 45 9 27 47 65 67 85 105 123 142 160 180 200
b 46 47 65 66 67 85
b 47 9 27 29 47 67 85 105 123 142 160 180 200
b 48 9 11 29 47 67 85 105 123 142 160 180 200
b 49 9 10 11 29
b 50 11 29 47 67 85 105 123 142 160 162 180 200
b 51 142 160 161 162 180
b 52 11 29 47 49 67 85 105 123 142 162 180 200
b 53 29 47 48 49 67
b 54 11 29 49 67 85 87 105 123 142 162 180 200
b 55 67 85 86 87 105
b 56 11 29 31 49 67 87 105 123 142 162 180 200
b 57 11 31 49 67 69 87 105 123 142 162 180 200
b 58 11 13 31 49 69 87 105 123 142 162 180 200
b 59 11 12 13 31
b 60 13 31 49 51 69 87 105 123 142 162 180 200
b 61 31 49 50 51 69
b 62 13 31 33 51 69 87 105 123 142 162 180 200
b 63 13 31 32 33 51
b 64 13 33 51 69 87 105 123 125 142 144 162 180 200
b 65 13 33 51 69 87 105 107 125 126 144 162 180 200
b 66 13 33 51 69 87 89 107 108 126 144 162 180 200
b 67 69 87 88 89 107
b 68 13 33 51 69 89 108 126 144 162 163 180 182 200
b 69 13 33 51 69 89 108 126 144 163 164 180 182 200
b 70 13 33 51 69 89 108 126 144 164 182 184 200 204
b 71 164 182 184 200 202 204
b 72 164 182 183 184 202
b 73 184 202 203 204
b 74 182 200 201 202
b 75 13 33 51 69 89 108 126 144 146 164 184 204
b 76 13 33 51 69 89 108 126 128 146 164 184 204
b 77 13 33 51 69 89 108 128 146 164 166 184 204
b 78 13 33 51 69 89 108 128 146 148 166 184 204
b 79 128 146 147 148 166
b 80 13 33 51 69 71 89 108 128 148 166 184 204
b 81 13 33 51 71 89 90 108 128 148 166 184 204
b 82 13 33 51 71 90 108 110 128 148 166 184 204
b 83 90 108 109 110 128
b 84 13 33 51 71 90 110 128 130 148 166 184 204
b 85 110 128 129 130 148
b 86 51 69 70 71 89
b 87 146 164 165 166 184
b 88 108 126 127 128 146
b 89 126 144 145 146 164
b 90 162 180 181 182 200
b 91 87 105 106 107 125
b 92 105 123 125 142 143 144 162
b 93 105 123 124 125 143
b 94 49 67 68 69 87
b 95 11 29 30 31 49
b 96 9 27 28 29 47
b 97 27 45 46 47 65
b 98 85 103 104 105 123
b 99 160 178 180 196 198 200
b 100 160 178 179 180 198
b 101 178 196 197 198
b 102 180 198 199 200
b 103 5 7 9 25 27 45
b 104 7 8 9 27
b 105 7 25 26 27 45
b 106 5 6 7 25
b 107 65 83 84 85 103
b 108 122 140 141 142 160
b 109 45 63 64 65 83
b 110 140 158 159 160 178
b 111 158 176 177 178 196
b 112 120 138 139 140 158
b 113 100 118 119 120 138
b 114 25 43 44 45 63
b 115 62 80 81 82 100
b 116 96 98 116 118 136 138 158 176 196
b 117 96 116 118 136 138 156 158 176 196
b 118 138 156 157 158 176
b 119 96 116 136 156 176 194 196
b 120 176 194 195 196
b 121 96 116 134 136 156 176 194
b 122 96 115 116 134
b 123 116 134 136 156 174 176 194
b 124 156 174 175 176 194
b 125 116 134 136 154 156 174 194
b 126 116 134 135 136 154
b 127 136 154 155 156 174
b 128 134 154 174 193 194
b 129 134 153 154 174 193
b 130 153 154 173 174 193
b 131 118 136 137 138 156
b 132 98 116 117 118 136
b 133 60 78 79 80 98
b 134 42 60 61 62 80
b 135 5 23 24 25 43
b 136 58 77 78 96
b 137 40 58 59 60 78
b 138 22 40 41 42 60
b 139 3 22 39 40 58
b 140 3 21 22 39 40
b 141 33 51 52 53 71
b 142 13 33 51 53 71 90 110 130 148 166 184 204
b 143 13 33 53 71 72 90 110 130 148 166 184 204
b 144 13 33 53 72 90 92 110 130 148 166 184 204
b 145 13 33 53 72 92 110 112 130 148 166 184 204
b 146 13 33 53 72 76 92 94 112 130 148 166 184 204
b 147 76 94 112 130 132 148 152 166 184 204
b 148 13 33 53 72 74 76 92 94 112
b 149 74 92 93 94 112
b 150 13 33 53 54 72 74 76 92 94
b 151 13 17 33 36 53 54 74 76 94
b 152 13 17 33 35 36 53 54
b 153 13 15 17 33 35 53
b 154 13 14 15 33
b 155 15 33 34 35 53
b 156 15 16 17 35
b 157 17 36 54 56 74 76 94
b 158 36 54 55 56 74
b 159 17 36 56 57 76
b 160 17 36 37 56 57
b 161 56 74 75 76 94
b 162 54 72 73 74 92
b 163 76 94 112 114 132 152
b 164 76 94 95 114
b 165 94 112 113 114 132
b 166 114 132 133 152
b 167 112 130 132 148 152 166 184 186 204
b 168 112 130 132 148 152 166 168 186 204
b 169 148 166 167 168 186
b 170 112 130 132 148 150 152 168 186 204
b 171 130 148 149 150 168
b 172 112 130 131 132 150
b 173 132 150 152 168 186 204 206
b 174 132 150 152 168 186 188 206
b 175 132 150 152 168 170 188 206
b 176 150 168 169 170 188
b 177 132 150 151 152 170
b 178 152 170 188 206 207
b 179 152 170 171 188 207
b 180 170 171 188 189 207
b 181 168 186 187 188 206
b 182 186 204 205 206
b 183 166 184 185 186 204
b 184 92 110 111 112 130
b 185 72 90 91 92 110
b 186 190 208 209
b 187 172 191 192
b 188 18 19 38
1 2
2 4
3 188
3 5
4 140
5 160
6 187
6 8
7 186
7 9
8 130
9 180
10 11
11 139
11 12
12 138
12 13
13 137
13 14
14 136
14 15
15 135
15 16
16 134
16 17
17 133
17 18
18 20
18 19
20 116
20 21
21 22
22 23
22 24
24 115
24 25
25 26
26 114
26 27
27 113
27 28
28 30
28 29
30 31
31 112
31 32
32 34
32 33
34 111
34 35
35 110
35 36
36 109
36 37
37 108
37 38
38 39
39 107
39 40
40 41
41 103
41 42
42 99
42 43
43 98
43 44
44 97
44 45
45 47
45 46
47 96
47 48
48 50
48 49
50 52
50 51
52 54
52 53
54 56
54 55
56 95
56 57
57 94
57 58
58 60
58 59
60 62
60 61
62 64
62 63
64 92
64 65
65 91
65 66
66 68
66 67
68 90
68 69
69 70
70 75
70 71
71 72
71 73
71 74
75 89
75 76
76 88
76 77
77 87
77 78
78 80
78 79
80 81
80 86
81 82
82 83
82 84
84 142
84 85
92 93
99 100
99 101
99 102
103 106
103 104
103 105
116 132
116 117
117 118
117 119
117 131
119 120
119 121
121 122
121 123
123 124
123 125
125 128
125 126
125 127
128 129
129 130
139 140
141 142
142 143
143 144
144 185
144 145
145 184
145 146
146 148
146 147
147 163
147 167
148 150
148 149
150 162
150 151
151 152
151 157
152 153
153 154
153 156
153 155
157 159
157 161
157 158
159 160
163 164
163 166
163 165
167 183
167 168
168 169
168 170
170 172
170 171
170 173
173 182
173 174
174 181
174 175
175 178
175 177
175 176
178 179
179 180
